(set-info :status unknown)
(declare-fun %Y () (_ BitVec 13))
(declare-fun %X () (_ BitVec 13))
(assert
 (let (($x9839 (and (distinct (bvudiv ((_ zero_extend 42) %X) ((_ zero_extend 42) %Y)) ((_ zero_extend 42) (bvudiv %X %Y))) true)))
 (and (and (distinct ((_ zero_extend 42) %Y) (_ bv0 55)) true) $x9839)))
(check-sat)
